p cnf 15 59
-7 14 -15 0
-1 -2 3 0
1 -2 5 0
-3 -5 -11 0
-2 9 13 0
1 3 11 0
1 -3 -6 0
4 -8 -15 0
-5 6 -9 0
-5 -9 13 0
2 -7 -12 0
-6 -8 -15 0
3 -6 15 0
9 -12 -15 0
-4 -5 7 0
-9 10 15 0
4 8 -15 0
-6 7 -13 0
-1 -11 -14 0
-5 -7 -10 0
1 8 10 0
-3 -13 -14 0
-12 -13 -15 0
7 12 14 0
2 5 -7 0
-1 -5 8 0
-1 -6 -15 0
4 5 -15 0
-3 -8 10 0
-2 3 -6 0
4 8 11 0
3 -4 -6 0
12 13 -15 0
-2 -6 12 0
-3 -7 15 0
-5 -13 14 0
2 -3 -4 0
-2 5 -7 0
-3 8 14 0
-6 8 -13 0
1 -4 14 0
-12 -14 -15 0
-1 -7 -10 0
-4 7 -12 0
1 -7 -11 0
-4 -11 14 0
4 -6 7 0
7 -13 -14 0
5 8 11 0
-3 -5 14 0
1 -2 7 0
2 9 14 0
1 -12 -13 0
4 -11 15 0
-2 -7 -12 0
-1 3 -4 0
-5 10 -11 0
-2 4 -7 0
2 4 -12 0
